1646
2 73 98 39 15 20 77 32 19 24 53 9 59 67 84 92 8 16 4 3 63 14 56 38 82 86 66 81 65 52 10 18 89 51 5 85 93 58 22 50 55 26 23 70 31 79 17 7 72 46 30 21 35 76 95 1 94 78 90 88 69 29 49 44 75 80 11 48 74 99 37 83 61 6 45 40 62 47 25 36 54 96 27 60 57 68 91 71 97 12 64 41 87 28 34 43 42 13 33 
